552.0,263.0,29.0,45.0
559.0,244.0,23.0,36.0
564.0,213.0,27.0,34.0
570.0,190.0,31.0,39.0
574.0,180.0,31.0,39.0
568.0,186.0,35.0,48.0
572.0,203.0,35.0,37.0
604.0,216.0,29.0,29.0
649.0,205.0,32.0,37.0
652.0,207.0,31.0,44.0
654.0,217.0,31.0,44.0
651.0,247.0,31.0,37.0
638.0,306.0,36.0,31.0
622.0,347.0,35.0,35.0
610.0,383.0,23.0,29.0
592.0,399.0,30.0,35.0
587.0,403.0,30.0,35.0
586.0,403.0,22.0,39.0
586.0,392.0,22.0,39.0
587.0,385.0,22.0,39.0
591.0,384.0,18.0,35.0
0
0
0
0
0
0
0
0
0
590.0,396.0,23.0,38.0
590.0,394.0,23.0,38.0
590.0,393.0,23.0,38.0
591.0,389.0,23.0,38.0
592.0,390.0,23.0,38.0
591.0,391.0,23.0,38.0
592.0,391.0,23.0,38.0
596.0,394.0,22.0,36.0
596.0,390.0,23.0,38.0
599.0,389.0,23.0,38.0
599.0,388.0,34.0,36.0
597.0,388.0,34.0,36.0
596.0,386.0,34.0,36.0
594.0,385.0,32.0,34.0
591.0,379.0,32.0,34.0
592.0,377.0,32.0,34.0
591.0,374.0,32.0,34.0
590.0,372.0,32.0,34.0
590.0,372.0,32.0,34.0
590.0,373.0,32.0,34.0
590.0,374.0,32.0,34.0
592.0,376.0,32.0,34.0
592.0,378.0,32.0,34.0
591.0,380.0,34.0,36.0
592.0,382.0,34.0,36.0
591.0,385.0,34.0,36.0
590.0,387.0,34.0,36.0
589.0,389.0,34.0,36.0
591.0,390.0,34.0,36.0
591.0,390.0,34.0,36.0
588.0,392.0,34.0,36.0
589.0,391.0,34.0,36.0
590.0,389.0,34.0,36.0
591.0,384.0,34.0,36.0
591.0,382.0,34.0,36.0
592.0,378.0,34.0,36.0
592.0,376.0,34.0,36.0
591.0,370.0,34.0,36.0
592.0,368.0,34.0,36.0
591.0,368.0,34.0,36.0
589.0,371.0,34.0,36.0
589.0,373.0,32.0,34.0
589.0,377.0,32.0,34.0
590.0,380.0,32.0,34.0
588.0,381.0,34.0,36.0
589.0,381.0,34.0,36.0
590.0,380.0,34.0,36.0
592.0,384.0,32.0,34.0
593.0,385.0,32.0,34.0
593.0,386.0,32.0,34.0
594.0,387.0,32.0,34.0
594.0,388.0,32.0,34.0
592.0,391.0,32.0,34.0
593.0,393.0,32.0,34.0
591.0,396.0,32.0,34.0
589.0,399.0,32.0,34.0
587.0,403.0,31.0,33.0
587.0,401.0,31.0,33.0
589.0,398.0,31.0,33.0
588.0,396.0,31.0,33.0
588.0,393.0,31.0,33.0
588.0,390.0,31.0,33.0
587.0,388.0,31.0,33.0
586.0,387.0,31.0,33.0
584.0,384.0,31.0,33.0
584.0,383.0,31.0,33.0
585.0,381.0,31.0,33.0
585.0,379.0,32.0,34.0
585.0,380.0,34.0,36.0
585.0,383.0,32.0,34.0
585.0,381.0,32.0,34.0
587.0,381.0,32.0,34.0
589.0,380.0,32.0,34.0
587.0,382.0,32.0,34.0
585.0,384.0,32.0,34.0
584.0,386.0,32.0,34.0
585.0,390.0,32.0,34.0
583.0,395.0,32.0,34.0
584.0,400.0,32.0,34.0
580.0,405.0,32.0,34.0
577.0,409.0,32.0,34.0
578.0,406.0,32.0,34.0
576.0,401.0,32.0,34.0
574.0,394.0,32.0,34.0
573.0,383.0,32.0,34.0
570.0,374.0,32.0,34.0
568.0,366.0,32.0,34.0
565.0,358.0,32.0,34.0
562.0,350.0,32.0,34.0
557.0,343.0,32.0,34.0
555.0,339.0,32.0,34.0
550.0,334.0,32.0,34.0
542.0,330.0,32.0,34.0
532.0,328.0,34.0,36.0
518.0,328.0,34.0,36.0
496.0,316.0,37.0,40.0
469.0,312.0,37.0,39.0
454.0,305.0,41.0,39.0
454.0,308.0,41.0,39.0
450.0,317.0,41.0,39.0
450.0,331.0,41.0,39.0
462.0,346.0,41.0,39.0
457.0,354.0,41.0,39.0
459.0,363.0,41.0,39.0
462.0,372.0,43.0,41.0
469.0,375.0,43.0,41.0
467.0,377.0,34.0,47.0
467.0,374.0,26.0,48.0
452.0,366.0,31.0,35.0
445.0,358.0,31.0,35.0
422.0,359.0,44.0,27.0
415.0,348.0,53.0,38.0
417.0,351.0,53.0,38.0
429.0,366.0,50.0,30.0
437.0,372.0,48.0,31.0
450.0,378.0,48.0,31.0
452.0,382.0,46.0,30.0
460.0,382.0,46.0,30.0
443.0,369.0,38.0,45.0
433.0,369.0,38.0,45.0
431.0,356.0,37.0,33.0
406.0,349.0,42.0,34.0
410.0,342.0,44.0,36.0
408.0,341.0,44.0,36.0
420.0,352.0,51.0,37.0
424.0,356.0,51.0,37.0
426.0,361.0,51.0,37.0
425.0,363.0,51.0,37.0
415.0,354.0,51.0,38.0
414.0,342.0,56.0,38.0
419.0,344.0,56.0,38.0
421.0,350.0,56.0,38.0
446.0,373.0,39.0,36.0
493.0,387.0,35.0,35.0
516.0,396.0,35.0,35.0
520.0,383.0,37.0,37.0
517.0,363.0,37.0,37.0
504.0,341.0,45.0,48.0
496.0,321.0,45.0,48.0
483.0,297.0,45.0,48.0
480.0,273.0,45.0,48.0
481.0,250.0,45.0,48.0
482.0,227.0,45.0,48.0
498.0,194.0,43.0,52.0
507.0,180.0,45.0,55.0
526.0,152.0,39.0,37.0
540.0,121.0,53.0,52.0
558.0,119.0,53.0,52.0
564.0,123.0,53.0,52.0
571.0,139.0,53.0,52.0
603.0,152.0,36.0,41.0
638.0,169.0,40.0,39.0
648.0,173.0,40.0,39.0
655.0,173.0,38.0,37.0
656.0,178.0,38.0,37.0
636.0,180.0,49.0,33.0
632.0,178.0,49.0,33.0
622.0,167.0,46.0,40.0
626.0,155.0,44.0,38.0
611.0,145.0,42.0,33.0
605.0,145.0,44.0,35.0
597.0,145.0,45.0,48.0
609.0,157.0,45.0,48.0
635.0,169.0,30.0,41.0
654.0,174.0,30.0,41.0
652.0,186.0,37.0,38.0
648.0,190.0,31.0,34.0
640.0,192.0,31.0,34.0
633.0,192.0,31.0,34.0
620.0,172.0,47.0,38.0
607.0,157.0,44.0,42.0
605.0,153.0,44.0,42.0
590.0,161.0,40.0,43.0
598.0,165.0,40.0,43.0
609.0,168.0,40.0,43.0
646.0,189.0,31.0,44.0
645.0,210.0,31.0,36.0
648.0,213.0,31.0,36.0
630.0,220.0,31.0,31.0
622.0,211.0,31.0,31.0
608.0,214.0,34.0,37.0
610.0,219.0,34.0,37.0
626.0,248.0,33.0,38.0
622.0,272.0,32.0,35.0
607.0,311.0,34.0,37.0
586.0,354.0,38.0,29.0
558.0,375.0,39.0,38.0
542.0,384.0,39.0,38.0
530.0,394.0,31.0,40.0
528.0,388.0,31.0,40.0
525.0,382.0,31.0,40.0
521.0,377.0,33.0,42.0
519.0,370.0,34.0,44.0
514.0,364.0,34.0,44.0
510.0,362.0,34.0,44.0
498.0,349.0,36.0,46.0
483.0,366.0,37.0,40.0
471.0,369.0,37.0,40.0
457.0,371.0,31.0,33.0
435.0,376.0,35.0,29.0
434.0,378.0,35.0,29.0
438.0,381.0,35.0,29.0
440.0,396.0,37.0,31.0
439.0,414.0,34.0,35.0
450.0,426.0,34.0,35.0
452.0,425.0,36.0,37.0
459.0,426.0,36.0,37.0
469.0,426.0,36.0,37.0
471.0,419.0,26.0,35.0
469.0,410.0,27.0,37.0
457.0,407.0,34.0,41.0
446.0,399.0,28.0,44.0
425.0,390.0,33.0,31.0
413.0,377.0,33.0,31.0
385.0,367.0,48.0,37.0
386.0,365.0,48.0,37.0
377.0,364.0,48.0,37.0
380.0,364.0,46.0,42.0
377.0,358.0,48.0,44.0
378.0,358.0,48.0,44.0
381.0,358.0,48.0,44.0
384.0,355.0,51.0,46.0
385.0,335.0,41.0,40.0
371.0,314.0,46.0,45.0
376.0,300.0,45.0,33.0
366.0,273.0,45.0,33.0
377.0,259.0,41.0,41.0
378.0,253.0,41.0,41.0
384.0,248.0,38.0,47.0
391.0,250.0,38.0,47.0
396.0,242.0,38.0,47.0
400.0,240.0,38.0,47.0
406.0,234.0,36.0,45.0
408.0,221.0,36.0,45.0
413.0,211.0,34.0,43.0
411.0,205.0,34.0,43.0
418.0,201.0,36.0,45.0
417.0,192.0,38.0,47.0
423.0,177.0,38.0,47.0
419.0,173.0,36.0,45.0
416.0,164.0,34.0,43.0
416.0,151.0,34.0,43.0
414.0,114.0,48.0,58.0
430.0,101.0,46.0,55.0
432.0,97.0,54.0,58.0
431.0,102.0,54.0,58.0
439.0,120.0,54.0,58.0
460.0,114.0,54.0,52.0
509.0,111.0,47.0,65.0
530.0,135.0,47.0,65.0
548.0,140.0,46.0,55.0
545.0,151.0,59.0,45.0
546.0,147.0,53.0,51.0
554.0,147.0,53.0,51.0
568.0,137.0,43.0,56.0
607.0,153.0,40.0,47.0
609.0,167.0,34.0,38.0
616.0,163.0,32.0,36.0
605.0,158.0,46.0,39.0
606.0,157.0,46.0,39.0
616.0,138.0,34.0,35.0
611.0,122.0,41.0,38.0
612.0,110.0,39.0,47.0
617.0,106.0,39.0,47.0
618.0,103.0,39.0,47.0
629.0,112.0,39.0,47.0
633.0,125.0,37.0,45.0
629.0,161.0,37.0,38.0
629.0,178.0,37.0,38.0
629.0,185.0,37.0,38.0
633.0,194.0,36.0,37.0
633.0,202.0,38.0,39.0
644.0,207.0,32.0,35.0
654.0,211.0,28.0,31.0
661.0,223.0,30.0,30.0
657.0,234.0,30.0,30.0
0
0
0
0
0
0
0
0
0
0
0
0
0
0
0
634.0,380.0,31.0,35.0
641.0,357.0,31.0,35.0
641.0,340.0,31.0,35.0
645.0,318.0,33.0,37.0
645.0,277.0,30.0,39.0
628.0,244.0,39.0,30.0
610.0,208.0,39.0,30.0
599.0,157.0,40.0,38.0
566.0,108.0,48.0,50.0
516.0,79.0,43.0,47.0
460.0,59.0,56.0,58.0
419.0,73.0,49.0,54.0
395.0,93.0,49.0,54.0
350.0,112.0,56.0,50.0
325.0,135.0,56.0,50.0
313.0,172.0,44.0,44.0
311.0,196.0,44.0,44.0
285.0,236.0,52.0,49.0
282.0,274.0,53.0,43.0
279.0,308.0,52.0,43.0
291.0,332.0,52.0,43.0
304.0,367.0,54.0,43.0
313.0,389.0,56.0,47.0
337.0,413.0,44.0,48.0
359.0,435.0,44.0,48.0
373.0,461.0,41.0,43.0
399.0,475.0,41.0,43.0
420.0,486.0,41.0,43.0
439.0,493.0,41.0,43.0
458.0,497.0,41.0,43.0
490.0,492.0,31.0,35.0
507.0,493.0,33.0,37.0
520.0,488.0,33.0,37.0
534.0,483.0,31.0,35.0
541.0,480.0,30.0,33.0
549.0,481.0,30.0,33.0
550.0,472.0,24.0,41.0
555.0,469.0,24.0,41.0
557.0,463.0,25.0,43.0
559.0,461.0,25.0,43.0
559.0,449.0,25.0,43.0
560.0,442.0,25.0,43.0
562.0,440.0,25.0,43.0
563.0,443.0,25.0,35.0
564.0,440.0,25.0,35.0
566.0,437.0,25.0,35.0
566.0,433.0,25.0,35.0
567.0,431.0,25.0,35.0
567.0,428.0,25.0,35.0
566.0,425.0,25.0,35.0
562.0,426.0,26.0,37.0
558.0,430.0,26.0,37.0
555.0,435.0,26.0,37.0
552.0,434.0,26.0,37.0
551.0,434.0,26.0,37.0
549.0,433.0,26.0,37.0
539.0,420.0,31.0,51.0
533.0,420.0,33.0,54.0
520.0,407.0,31.0,49.0
497.0,391.0,39.0,41.0
490.0,385.0,40.0,40.0
491.0,386.0,40.0,40.0
492.0,386.0,42.0,42.0
498.0,390.0,35.0,37.0
499.0,390.0,35.0,37.0
509.0,393.0,26.0,35.0
510.0,392.0,25.0,34.0
511.0,378.0,28.0,46.0
513.0,372.0,28.0,47.0
514.0,364.0,28.0,47.0
511.0,348.0,30.0,43.0
504.0,335.0,34.0,35.0
507.0,332.0,30.0,23.0
509.0,328.0,31.0,39.0
510.0,328.0,31.0,40.0
510.0,329.0,32.0,41.0
509.0,327.0,34.0,43.0
509.0,328.0,33.0,42.0
505.0,319.0,28.0,41.0
503.0,312.0,31.0,46.0
502.0,303.0,32.0,47.0
509.0,293.0,25.0,47.0
504.0,279.0,36.0,40.0
496.0,259.0,37.0,43.0
507.0,247.0,29.0,43.0
508.0,247.0,29.0,43.0
508.0,247.0,29.0,43.0
508.0,246.0,30.0,44.0
508.0,259.0,31.0,45.0
508.0,260.0,32.0,46.0
509.0,260.0,32.0,46.0
509.0,260.0,31.0,46.0
522.0,262.0,29.0,33.0
526.0,255.0,31.0,36.0
532.0,247.0,31.0,36.0
538.0,236.0,33.0,40.0
539.0,227.0,39.0,38.0
542.0,212.0,33.0,41.0
542.0,212.0,33.0,41.0
542.0,213.0,33.0,40.0
547.0,259.0,32.0,35.0
549.0,292.0,27.0,30.0
539.0,317.0,29.0,34.0
528.0,341.0,27.0,41.0
518.0,358.0,34.0,36.0
512.0,383.0,29.0,31.0
508.0,385.0,30.0,35.0
497.0,401.0,27.0,31.0
485.0,411.0,32.0,41.0
477.0,423.0,30.0,39.0
470.0,432.0,30.0,39.0
465.0,438.0,32.0,41.0
462.0,439.0,36.0,46.0
461.0,440.0,31.0,39.0
461.0,440.0,31.0,39.0
462.0,439.0,30.0,38.0
463.0,437.0,30.0,38.0
464.0,435.0,30.0,38.0
465.0,431.0,30.0,38.0
465.0,429.0,29.0,36.0
465.0,426.0,29.0,37.0
465.0,425.0,28.0,36.0
465.0,425.0,28.0,35.0
467.0,426.0,27.0,34.0
471.0,427.0,25.0,32.0
474.0,427.0,25.0,32.0
475.0,425.0,24.0,30.0
473.0,413.0,29.0,33.0
468.0,393.0,33.0,41.0
467.0,377.0,29.0,35.0
460.0,355.0,31.0,35.0
453.0,325.0,40.0,41.0
445.0,296.0,41.0,38.0
449.0,259.0,35.0,42.0
466.0,235.0,44.0,47.0
478.0,221.0,37.0,43.0
477.0,209.0,37.0,38.0
477.0,204.0,39.0,40.0
476.0,203.0,39.0,40.0
474.0,203.0,39.0,40.0
477.0,208.0,35.0,36.0
477.0,207.0,37.0,38.0
471.0,200.0,41.0,42.0
474.0,199.0,40.0,41.0
477.0,196.0,41.0,42.0
480.0,195.0,40.0,41.0
482.0,194.0,41.0,43.0
486.0,195.0,40.0,42.0
488.0,194.0,41.0,42.0
488.0,194.0,41.0,42.0
487.0,194.0,41.0,42.0
487.0,195.0,40.0,41.0
487.0,196.0,40.0,41.0
487.0,196.0,40.0,41.0
488.0,197.0,40.0,41.0
488.0,196.0,40.0,41.0
488.0,196.0,41.0,42.0
489.0,197.0,41.0,42.0
491.0,206.0,38.0,35.0
497.0,214.0,37.0,34.0
515.0,233.0,25.0,30.0
526.0,249.0,25.0,30.0
519.0,272.0,35.0,38.0
521.0,294.0,29.0,39.0
508.0,313.0,37.0,44.0
502.0,347.0,35.0,41.0
488.0,371.0,43.0,36.0
480.0,398.0,46.0,29.0
473.0,415.0,43.0,30.0
467.0,432.0,46.0,30.0
464.0,443.0,44.0,32.0
462.0,452.0,42.0,30.0
459.0,459.0,39.0,29.0
455.0,460.0,45.0,39.0
452.0,459.0,47.0,41.0
452.0,457.0,47.0,41.0
453.0,455.0,47.0,41.0
454.0,454.0,47.0,41.0
454.0,454.0,47.0,41.0
455.0,453.0,47.0,40.0
455.0,453.0,46.0,40.0
456.0,452.0,46.0,40.0
456.0,452.0,46.0,40.0
457.0,452.0,46.0,40.0
458.0,452.0,46.0,40.0
459.0,452.0,45.0,39.0
459.0,452.0,46.0,40.0
459.0,452.0,46.0,39.0
459.0,452.0,46.0,40.0
460.0,453.0,45.0,39.0
460.0,453.0,45.0,39.0
460.0,453.0,45.0,39.0
460.0,454.0,45.0,39.0
460.0,454.0,45.0,39.0
461.0,454.0,45.0,39.0
461.0,454.0,45.0,39.0
461.0,455.0,45.0,39.0
461.0,455.0,45.0,39.0
461.0,455.0,45.0,39.0
461.0,456.0,45.0,39.0
461.0,456.0,45.0,39.0
461.0,456.0,45.0,39.0
461.0,457.0,45.0,39.0
461.0,457.0,44.0,38.0
460.0,457.0,45.0,39.0
460.0,457.0,45.0,39.0
461.0,458.0,44.0,38.0
461.0,458.0,44.0,38.0
461.0,458.0,44.0,38.0
461.0,457.0,45.0,39.0
462.0,457.0,45.0,39.0
463.0,454.0,49.0,43.0
465.0,453.0,50.0,44.0
466.0,451.0,51.0,44.0
466.0,450.0,51.0,44.0
465.0,446.0,52.0,45.0
465.0,453.0,43.0,38.0
461.0,453.0,42.0,37.0
453.0,452.0,43.0,38.0
446.0,454.0,40.0,36.0
440.0,455.0,40.0,35.0
434.0,455.0,38.0,34.0
429.0,455.0,39.0,34.0
428.0,455.0,34.0,30.0
424.0,454.0,35.0,31.0
420.0,454.0,34.0,30.0
419.0,454.0,33.0,29.0
418.0,451.0,40.0,35.0
415.0,450.0,40.0,35.0
413.0,451.0,39.0,34.0
413.0,451.0,37.0,33.0
412.0,452.0,34.0,30.0
413.0,452.0,33.0,29.0
413.0,451.0,33.0,29.0
416.0,449.0,33.0,29.0
419.0,444.0,43.0,35.0
425.0,444.0,42.0,34.0
429.0,445.0,40.0,33.0
437.0,446.0,38.0,31.0
443.0,447.0,37.0,30.0
448.0,448.0,38.0,31.0
454.0,449.0,38.0,31.0
461.0,450.0,40.0,33.0
466.0,448.0,45.0,37.0
472.0,448.0,47.0,38.0
478.0,448.0,49.0,40.0
483.0,449.0,50.0,41.0
487.0,449.0,52.0,42.0
490.0,449.0,53.0,43.0
494.0,450.0,53.0,43.0
496.0,450.0,55.0,45.0
495.0,450.0,55.0,45.0
494.0,451.0,54.0,44.0
492.0,451.0,55.0,45.0
490.0,451.0,54.0,44.0
488.0,452.0,55.0,45.0
487.0,452.0,55.0,45.0
488.0,456.0,44.0,38.0
488.0,457.0,44.0,38.0
488.0,457.0,43.0,37.0
488.0,458.0,43.0,37.0
487.0,460.0,42.0,36.0
491.0,450.0,35.0,43.0
490.0,435.0,39.0,46.0
492.0,424.0,41.0,49.0
495.0,411.0,31.0,51.0
493.0,401.0,30.0,49.0
488.0,401.0,35.0,45.0
488.0,393.0,29.0,49.0
486.0,388.0,25.0,45.0
484.0,382.0,24.0,44.0
484.0,378.0,26.0,47.0
487.0,373.0,28.0,51.0
494.0,382.0,27.0,32.0
495.0,382.0,26.0,31.0
501.0,371.0,26.0,36.0
502.0,373.0,26.0,37.0
502.0,375.0,27.0,37.0
0
0
0
0
0
0
0
0
0
0
0
0
0
0
0
0
0
0
0
0
0
0
0
0
0
0
0
0
517.0,394.0,31.0,28.0
518.0,395.0,31.0,28.0
522.0,393.0,27.0,25.0
533.0,375.0,32.0,40.0
544.0,352.0,30.0,38.0
546.0,323.0,32.0,37.0
541.0,301.0,32.0,30.0
545.0,283.0,27.0,25.0
543.0,267.0,35.0,34.0
516.0,255.0,39.0,38.0
505.0,244.0,38.0,44.0
500.0,244.0,38.0,44.0
501.0,243.0,38.0,44.0
502.0,241.0,39.0,45.0
503.0,240.0,39.0,46.0
507.0,242.0,55.0,41.0
514.0,239.0,53.0,39.0
520.0,238.0,52.0,39.0
520.0,234.0,59.0,44.0
541.0,234.0,37.0,42.0
546.0,234.0,37.0,42.0
543.0,230.0,45.0,51.0
552.0,235.0,41.0,47.0
556.0,238.0,41.0,46.0
568.0,241.0,42.0,47.0
567.0,240.0,43.0,48.0
562.0,237.0,46.0,51.0
538.0,240.0,51.0,46.0
526.0,237.0,56.0,51.0
516.0,234.0,61.0,55.0
506.0,232.0,66.0,60.0
502.0,239.0,48.0,37.0
493.0,243.0,49.0,37.0
493.0,243.0,48.0,37.0
484.0,258.0,43.0,40.0
482.0,260.0,45.0,42.0
477.0,259.0,50.0,46.0
477.0,259.0,50.0,47.0
477.0,259.0,50.0,46.0
489.0,252.0,50.0,46.0
503.0,251.0,50.0,34.0
513.0,243.0,52.0,36.0
523.0,236.0,52.0,36.0
533.0,238.0,52.0,36.0
542.0,233.0,52.0,36.0
551.0,230.0,50.0,34.0
567.0,230.0,36.0,35.0
571.0,233.0,36.0,35.0
571.0,249.0,38.0,37.0
571.0,267.0,38.0,37.0
566.0,287.0,40.0,39.0
551.0,310.0,31.0,38.0
542.0,328.0,31.0,38.0
525.0,336.0,41.0,48.0
520.0,339.0,37.0,57.0
510.0,339.0,39.0,60.0
505.0,353.0,37.0,48.0
498.0,356.0,37.0,48.0
492.0,358.0,37.0,48.0
481.0,357.0,39.0,50.0
478.0,365.0,33.0,37.0
472.0,366.0,33.0,37.0
465.0,363.0,33.0,37.0
462.0,360.0,35.0,39.0
459.0,358.0,35.0,39.0
457.0,358.0,35.0,39.0
455.0,357.0,35.0,39.0
454.0,355.0,35.0,39.0
453.0,355.0,33.0,37.0
453.0,354.0,33.0,37.0
454.0,357.0,33.0,37.0
453.0,357.0,27.0,30.0
455.0,357.0,27.0,30.0
456.0,356.0,27.0,30.0
457.0,356.0,27.0,30.0
457.0,353.0,27.0,30.0
457.0,354.0,27.0,30.0
457.0,353.0,27.0,30.0
458.0,356.0,27.0,30.0
460.0,360.0,27.0,30.0
461.0,361.0,27.0,30.0
461.0,360.0,27.0,30.0
463.0,360.0,27.0,30.0
462.0,359.0,27.0,30.0
464.0,359.0,27.0,30.0
466.0,360.0,27.0,30.0
467.0,360.0,27.0,30.0
466.0,358.0,28.0,31.0
466.0,357.0,30.0,33.0
467.0,358.0,30.0,33.0
469.0,357.0,30.0,33.0
469.0,359.0,30.0,33.0
470.0,358.0,30.0,33.0
470.0,357.0,31.0,35.0
472.0,358.0,31.0,35.0
472.0,359.0,31.0,35.0
473.0,361.0,31.0,35.0
471.0,362.0,31.0,35.0
471.0,360.0,33.0,36.0
471.0,361.0,33.0,36.0
475.0,355.0,36.0,39.0
474.0,355.0,36.0,39.0
476.0,358.0,36.0,39.0
477.0,359.0,36.0,39.0
478.0,361.0,36.0,39.0
479.0,362.0,36.0,39.0
0
0
0
0
0
485.0,367.0,31.0,36.0
478.0,360.0,33.0,38.0
472.0,339.0,33.0,38.0
473.0,280.0,35.0,39.0
475.0,255.0,35.0,39.0
477.0,183.0,39.0,41.0
483.0,146.0,41.0,46.0
490.0,126.0,41.0,46.0
493.0,124.0,30.0,42.0
496.0,128.0,30.0,42.0
496.0,137.0,30.0,42.0
488.0,170.0,36.0,39.0
484.0,199.0,33.0,33.0
476.0,228.0,34.0,34.0
477.0,246.0,31.0,39.0
482.0,271.0,28.0,35.0
487.0,273.0,28.0,35.0
490.0,267.0,28.0,35.0
492.0,245.0,32.0,36.0
498.0,231.0,31.0,36.0
516.0,207.0,32.0,34.0
530.0,195.0,30.0,32.0
546.0,184.0,34.0,30.0
561.0,193.0,31.0,32.0
570.0,213.0,31.0,32.0
568.0,251.0,37.0,34.0
564.0,287.0,37.0,35.0
563.0,318.0,33.0,39.0
552.0,359.0,35.0,37.0
536.0,383.0,37.0,39.0
522.0,401.0,33.0,36.0
507.0,395.0,33.0,36.0
504.0,380.0,35.0,38.0
510.0,362.0,29.0,37.0
517.0,356.0,29.0,37.0
518.0,356.0,29.0,37.0
531.0,347.0,35.0,39.0
538.0,350.0,37.0,41.0
547.0,352.0,37.0,41.0
568.0,371.0,24.0,42.0
579.0,380.0,25.0,44.0
593.0,388.0,31.0,40.0
615.0,370.0,33.0,42.0
638.0,326.0,30.0,35.0
638.0,260.0,46.0,42.0
645.0,204.0,37.0,43.0
642.0,180.0,34.0,45.0
646.0,177.0,34.0,45.0
649.0,192.0,31.0,30.0
651.0,206.0,36.0,42.0
650.0,259.0,34.0,43.0
642.0,353.0,36.0,35.0
600.0,395.0,33.0,43.0
551.0,395.0,44.0,45.0
532.0,364.0,38.0,44.0
513.0,326.0,26.0,36.0
507.0,275.0,32.0,35.0
517.0,230.0,32.0,29.0
522.0,193.0,36.0,39.0
539.0,166.0,44.0,47.0
556.0,163.0,46.0,51.0
581.0,196.0,47.0,38.0
601.0,233.0,35.0,41.0
611.0,284.0,41.0,42.0
614.0,330.0,47.0,48.0
618.0,361.0,47.0,48.0
622.0,375.0,47.0,48.0
625.0,379.0,47.0,48.0
630.0,378.0,47.0,48.0
633.0,378.0,47.0,48.0
633.0,376.0,49.0,50.0
637.0,375.0,49.0,50.0
641.0,374.0,49.0,50.0
645.0,373.0,49.0,50.0
648.0,372.0,49.0,50.0
652.0,371.0,47.0,48.0
654.0,373.0,47.0,48.0
659.0,377.0,47.0,48.0
662.0,382.0,47.0,48.0
662.0,388.0,47.0,48.0
660.0,397.0,47.0,51.0
668.0,400.0,45.0,49.0
672.0,401.0,45.0,49.0
677.0,401.0,45.0,49.0
683.0,400.0,43.0,46.0
687.0,394.0,43.0,46.0
692.0,389.0,43.0,46.0
699.0,381.0,43.0,46.0
706.0,374.0,43.0,46.0
710.0,366.0,43.0,46.0
718.0,362.0,43.0,46.0
722.0,359.0,43.0,46.0
728.0,359.0,43.0,46.0
729.0,363.0,43.0,46.0
731.0,362.0,43.0,46.0
730.0,362.0,43.0,46.0
731.0,358.0,43.0,46.0
732.0,356.0,43.0,46.0
732.0,354.0,43.0,46.0
735.0,354.0,43.0,46.0
736.0,355.0,43.0,46.0
736.0,356.0,43.0,46.0
748.0,358.0,34.0,41.0
747.0,365.0,34.0,41.0
748.0,373.0,32.0,39.0
748.0,380.0,32.0,39.0
748.0,383.0,32.0,39.0
751.0,383.0,32.0,39.0
755.0,384.0,32.0,39.0
757.0,382.0,32.0,39.0
762.0,380.0,32.0,39.0
764.0,379.0,31.0,37.0
768.0,376.0,31.0,37.0
770.0,372.0,31.0,37.0
773.0,368.0,31.0,37.0
775.0,365.0,31.0,37.0
778.0,362.0,31.0,37.0
782.0,359.0,31.0,37.0
783.0,356.0,32.0,39.0
785.0,359.0,32.0,39.0
786.0,359.0,32.0,39.0
789.0,357.0,32.0,39.0
789.0,356.0,32.0,39.0
789.0,356.0,32.0,39.0
789.0,356.0,32.0,39.0
791.0,355.0,32.0,39.0
790.0,357.0,32.0,39.0
792.0,359.0,32.0,39.0
792.0,366.0,31.0,37.0
793.0,375.0,29.0,35.0
792.0,381.0,29.0,35.0
792.0,387.0,29.0,35.0
793.0,391.0,28.0,34.0
797.0,391.0,28.0,34.0
800.0,390.0,28.0,34.0
803.0,388.0,28.0,34.0
807.0,385.0,28.0,34.0
809.0,379.0,28.0,34.0
812.0,372.0,28.0,34.0
815.0,364.0,28.0,34.0
814.0,364.0,28.0,34.0
820.0,356.0,28.0,34.0
824.0,355.0,28.0,34.0
823.0,354.0,28.0,34.0
830.0,359.0,29.0,35.0
834.0,355.0,29.0,35.0
836.0,358.0,29.0,35.0
856.0,353.0,29.0,35.0
867.0,342.0,30.0,24.0
862.0,341.0,30.0,26.0
865.0,331.0,40.0,26.0
864.0,331.0,40.0,26.0
865.0,327.0,42.0,27.0
783.0,331.0,32.0,37.0
786.0,329.0,32.0,37.0
746.0,325.0,38.0,39.0
712.0,316.0,36.0,32.0
718.0,315.0,36.0,32.0
718.0,318.0,23.0,27.0
757.0,317.0,23.0,29.0
761.0,317.0,23.0,29.0
0
0
0
0
0
886.0,348.0,30.0,28.0
886.0,351.0,30.0,28.0
894.0,357.0,35.0,33.0
893.0,359.0,35.0,33.0
891.0,361.0,35.0,33.0
888.0,361.0,35.0,33.0
875.0,372.0,30.0,29.0
872.0,374.0,30.0,29.0
865.0,376.0,30.0,29.0
856.0,377.0,30.0,29.0
846.0,379.0,30.0,29.0
839.0,380.0,29.0,28.0
834.0,382.0,29.0,28.0
826.0,382.0,29.0,28.0
819.0,379.0,30.0,29.0
813.0,378.0,30.0,29.0
808.0,381.0,30.0,29.0
802.0,380.0,30.0,29.0
795.0,381.0,30.0,29.0
789.0,382.0,30.0,29.0
784.0,385.0,29.0,28.0
779.0,385.0,29.0,28.0
775.0,384.0,29.0,28.0
772.0,386.0,29.0,28.0
769.0,383.0,29.0,28.0
768.0,380.0,29.0,28.0
765.0,375.0,29.0,28.0
762.0,366.0,29.0,28.0
760.0,353.0,29.0,28.0
757.0,339.0,30.0,29.0
750.0,319.0,30.0,29.0
743.0,304.0,30.0,29.0
730.0,280.0,30.0,34.0
726.0,267.0,30.0,34.0
703.0,241.0,33.0,35.0
694.0,228.0,28.0,30.0
698.0,228.0,28.0,30.0
699.0,217.0,25.0,30.0
704.0,217.0,25.0,30.0
706.0,217.0,24.0,29.0
707.0,215.0,24.0,29.0
713.0,215.0,28.0,32.0
720.0,221.0,29.0,34.0
737.0,236.0,27.0,30.0
752.0,251.0,21.0,22.0
756.0,259.0,29.0,30.0
758.0,271.0,30.0,31.0
763.0,276.0,29.0,30.0
764.0,272.0,28.0,29.0
760.0,265.0,28.0,29.0
756.0,256.0,29.0,30.0
747.0,244.0,31.0,28.0
746.0,236.0,25.0,28.0
732.0,231.0,34.0,28.0
724.0,226.0,30.0,30.0
711.0,227.0,34.0,30.0
703.0,231.0,34.0,30.0
698.0,227.0,34.0,30.0
686.0,241.0,32.0,29.0
685.0,243.0,32.0,29.0
675.0,250.0,41.0,32.0
678.0,251.0,41.0,32.0
678.0,250.0,41.0,32.0
688.0,247.0,41.0,32.0
693.0,246.0,41.0,32.0
715.0,246.0,29.0,30.0
726.0,249.0,29.0,30.0
744.0,260.0,29.0,32.0
761.0,276.0,25.0,27.0
773.0,289.0,28.0,30.0
777.0,296.0,28.0,30.0
786.0,302.0,26.0,23.0
785.0,300.0,26.0,23.0
775.0,288.0,29.0,30.0
762.0,281.0,29.0,30.0
754.0,278.0,29.0,30.0
743.0,274.0,30.0,32.0
728.0,268.0,33.0,34.0
717.0,276.0,36.0,32.0
716.0,281.0,26.0,28.0
701.0,292.0,32.0,31.0
697.0,302.0,30.0,32.0
697.0,312.0,30.0,32.0
697.0,316.0,30.0,32.0
697.0,316.0,30.0,32.0
697.0,312.0,30.0,32.0
698.0,303.0,31.0,34.0
708.0,294.0,31.0,34.0
712.0,293.0,31.0,29.0
728.0,292.0,27.0,27.0
736.0,295.0,26.0,26.0
745.0,298.0,27.0,27.0
753.0,307.0,27.0,27.0
753.0,308.0,27.0,27.0
767.0,327.0,26.0,29.0
770.0,330.0,26.0,29.0
771.0,333.0,26.0,29.0
767.0,323.0,26.0,29.0
763.0,315.0,26.0,29.0
758.0,308.0,26.0,29.0
755.0,301.0,26.0,29.0
750.0,297.0,26.0,29.0
737.0,289.0,31.0,34.0
738.0,293.0,31.0,34.0
723.0,293.0,39.0,39.0
722.0,300.0,33.0,38.0
726.0,311.0,34.0,31.0
722.0,319.0,35.0,36.0
728.0,323.0,35.0,36.0
730.0,322.0,35.0,36.0
732.0,321.0,35.0,36.0
732.0,314.0,30.0,33.0
739.0,310.0,30.0,33.0
739.0,298.0,32.0,33.0
744.0,298.0,32.0,33.0
756.0,290.0,33.0,35.0
762.0,291.0,35.0,37.0
767.0,293.0,35.0,37.0
775.0,299.0,35.0,37.0
781.0,306.0,35.0,37.0
789.0,318.0,25.0,24.0
793.0,316.0,25.0,24.0
794.0,312.0,24.0,23.0
787.0,305.0,25.0,24.0
779.0,299.0,25.0,24.0
773.0,293.0,25.0,24.0
767.0,290.0,25.0,24.0
748.0,292.0,30.0,32.0
747.0,297.0,30.0,32.0
734.0,310.0,34.0,34.0
736.0,325.0,34.0,34.0
739.0,340.0,34.0,34.0
740.0,352.0,36.0,36.0
746.0,364.0,37.0,37.0
762.0,382.0,27.0,35.0
772.0,387.0,27.0,35.0
788.0,397.0,25.0,25.0
786.0,394.0,25.0,25.0
784.0,390.0,25.0,25.0
781.0,386.0,25.0,25.0
772.0,379.0,25.0,25.0
754.0,367.0,31.0,28.0
748.0,363.0,33.0,29.0
735.0,361.0,33.0,29.0
718.0,354.0,37.0,34.0
690.0,360.0,35.0,33.0
663.0,367.0,40.0,37.0
657.0,369.0,41.0,34.0
659.0,370.0,41.0,34.0
650.0,368.0,45.0,38.0
652.0,368.0,45.0,38.0
653.0,365.0,45.0,38.0
656.0,364.0,38.0,35.0
661.0,362.0,38.0,35.0
664.0,360.0,38.0,35.0
666.0,357.0,35.0,30.0
671.0,356.0,35.0,30.0
682.0,346.0,26.0,31.0
691.0,344.0,26.0,31.0
699.0,346.0,26.0,31.0
710.0,350.0,27.0,27.0
721.0,350.0,27.0,27.0
730.0,350.0,27.0,27.0
733.0,348.0,27.0,27.0
742.0,347.0,27.0,27.0
750.0,343.0,27.0,27.0
767.0,341.0,27.0,29.0
775.0,341.0,27.0,29.0
790.0,338.0,25.0,29.0
797.0,343.0,25.0,29.0
806.0,342.0,34.0,24.0
811.0,344.0,34.0,24.0
824.0,341.0,42.0,33.0
830.0,340.0,42.0,33.0
839.0,337.0,45.0,41.0
845.0,336.0,45.0,41.0
850.0,339.0,52.0,35.0
847.0,341.0,52.0,35.0
862.0,336.0,48.0,37.0
857.0,337.0,48.0,37.0
872.0,334.0,44.0,31.0
874.0,336.0,41.0,27.0
880.0,337.0,25.0,25.0
870.0,345.0,28.0,34.0
855.0,363.0,31.0,30.0
844.0,381.0,27.0,28.0
832.0,387.0,26.0,27.0
826.0,382.0,30.0,29.0
806.0,358.0,33.0,30.0
777.0,323.0,35.0,28.0
751.0,287.0,29.0,31.0
723.0,235.0,33.0,40.0
700.0,222.0,40.0,42.0
706.0,220.0,31.0,38.0
705.0,238.0,31.0,28.0
706.0,241.0,33.0,34.0
705.0,244.0,33.0,34.0
702.0,243.0,33.0,34.0
696.0,240.0,33.0,34.0
713.0,222.0,23.0,29.0
700.0,211.0,32.0,30.0
688.0,206.0,28.0,22.0
666.0,202.0,29.0,26.0
646.0,217.0,28.0,28.0
640.0,238.0,23.0,23.0
632.0,258.0,28.0,31.0
638.0,288.0,30.0,31.0
651.0,319.0,32.0,31.0
668.0,347.0,32.0,30.0
708.0,369.0,29.0,34.0
745.0,391.0,33.0,32.0
786.0,389.0,31.0,36.0
818.0,382.0,28.0,34.0
837.0,370.0,28.0,34.0
851.0,348.0,36.0,40.0
859.0,338.0,36.0,40.0
861.0,325.0,36.0,40.0
844.0,312.0,38.0,32.0
837.0,305.0,33.0,26.0
815.0,296.0,24.0,28.0
776.0,288.0,30.0,25.0
749.0,283.0,37.0,30.0
725.0,282.0,30.0,29.0
713.0,283.0,30.0,24.0
710.0,286.0,30.0,24.0
706.0,285.0,30.0,24.0
706.0,284.0,29.0,23.0
705.0,284.0,29.0,23.0
709.0,282.0,27.0,22.0
710.0,280.0,27.0,22.0
711.0,280.0,27.0,22.0
711.0,280.0,27.0,22.0
718.0,273.0,26.0,26.0
718.0,276.0,26.0,26.0
719.0,273.0,26.0,26.0
721.0,273.0,26.0,26.0
722.0,274.0,26.0,26.0
726.0,271.0,26.0,26.0
727.0,270.0,26.0,26.0
729.0,271.0,26.0,26.0
732.0,274.0,26.0,26.0
736.0,281.0,26.0,26.0
738.0,286.0,26.0,26.0
733.0,296.0,32.0,25.0
732.0,303.0,34.0,26.0
749.0,286.0,24.0,28.0
746.0,272.0,29.0,31.0
756.0,251.0,25.0,31.0
759.0,230.0,30.0,36.0
755.0,196.0,35.0,45.0
750.0,176.0,40.0,45.0
742.0,170.0,38.0,42.0
733.0,171.0,38.0,43.0
722.0,185.0,42.0,45.0
708.0,196.0,49.0,44.0
708.0,218.0,40.0,37.0
705.0,234.0,43.0,36.0
705.0,258.0,32.0,31.0
698.0,282.0,40.0,30.0
704.0,301.0,26.0,29.0
694.0,319.0,40.0,37.0
701.0,337.0,32.0,35.0
699.0,359.0,34.0,31.0
706.0,370.0,33.0,32.0
717.0,381.0,25.0,20.0
724.0,387.0,22.0,18.0
729.0,386.0,24.0,29.0
742.0,394.0,20.0,21.0
743.0,392.0,20.0,21.0
743.0,391.0,19.0,20.0
743.0,389.0,19.0,20.0
742.0,386.0,19.0,20.0
0
0
0
0
0
0
0
0
0
0
0
704.0,375.0,30.0,32.0
704.0,375.0,30.0,32.0
683.0,348.0,30.0,43.0
667.0,331.0,35.0,40.0
653.0,304.0,35.0,39.0
641.0,283.0,35.0,34.0
635.0,253.0,35.0,38.0
636.0,228.0,37.0,32.0
640.0,204.0,37.0,32.0
648.0,183.0,37.0,32.0
656.0,161.0,41.0,39.0
664.0,155.0,39.0,34.0
673.0,144.0,38.0,38.0
684.0,140.0,36.0,36.0
693.0,148.0,29.0,30.0
699.0,150.0,29.0,30.0
702.0,156.0,29.0,29.0
697.0,165.0,32.0,35.0
698.0,186.0,26.0,30.0
685.0,208.0,31.0,34.0
668.0,253.0,37.0,35.0
657.0,303.0,29.0,38.0
656.0,361.0,40.0,42.0
684.0,390.0,32.0,36.0
0
0
0
0
0
0
0
0
0
0
628.0,376.0,29.0,38.0
601.0,379.0,36.0,45.0
583.0,377.0,39.0,49.0
575.0,372.0,32.0,52.0
559.0,350.0,39.0,42.0
547.0,327.0,41.0,39.0
541.0,287.0,37.0,36.0
532.0,252.0,40.0,42.0
525.0,223.0,50.0,49.0
523.0,207.0,53.0,52.0
527.0,205.0,52.0,51.0
540.0,210.0,47.0,46.0
576.0,218.0,45.0,52.0
621.0,230.0,39.0,48.0
649.0,218.0,36.0,48.0
642.0,204.0,32.0,45.0
632.0,167.0,43.0,51.0
613.0,127.0,32.0,53.0
586.0,99.0,48.0,65.0
580.0,81.0,50.0,58.0
617.0,79.0,35.0,47.0
644.0,67.0,32.0,50.0
637.0,46.0,48.0,60.0
638.0,49.0,47.0,59.0
639.0,52.0,47.0,59.0
620.0,76.0,49.0,46.0
615.0,86.0,48.0,51.0
606.0,95.0,43.0,46.0
597.0,102.0,39.0,41.0
587.0,108.0,37.0,40.0
577.0,114.0,38.0,40.0
566.0,120.0,42.0,45.0
555.0,124.0,49.0,52.0
542.0,133.0,41.0,43.0
534.0,137.0,43.0,45.0
535.0,152.0,48.0,43.0
535.0,152.0,48.0,43.0
545.0,162.0,47.0,45.0
556.0,156.0,53.0,54.0
580.0,166.0,46.0,62.0
608.0,181.0,41.0,54.0
624.0,205.0,41.0,40.0
627.0,213.0,40.0,39.0
627.0,213.0,39.0,38.0
615.0,224.0,48.0,51.0
607.0,238.0,42.0,52.0
609.0,255.0,35.0,55.0
601.0,280.0,40.0,42.0
601.0,299.0,48.0,43.0
598.0,310.0,40.0,41.0
598.0,311.0,39.0,40.0
616.0,318.0,49.0,42.0
629.0,313.0,43.0,43.0
636.0,323.0,38.0,40.0
634.0,327.0,39.0,41.0
630.0,331.0,35.0,37.0
615.0,338.0,39.0,38.0
609.0,346.0,32.0,34.0
608.0,346.0,31.0,33.0
587.0,353.0,33.0,41.0
572.0,361.0,48.0,42.0
573.0,372.0,47.0,31.0
578.0,379.0,48.0,32.0
591.0,380.0,50.0,33.0
614.0,373.0,42.0,48.0
652.0,363.0,26.0,37.0
631.0,361.0,36.0,40.0
611.0,330.0,48.0,42.0
596.0,319.0,33.0,41.0
571.0,300.0,55.0,43.0
577.0,270.0,51.0,41.0
594.0,242.0,47.0,41.0
601.0,216.0,41.0,37.0
598.0,191.0,42.0,43.0
602.0,173.0,43.0,44.0
607.0,162.0,43.0,44.0
609.0,153.0,44.0,45.0
617.0,150.0,39.0,40.0
617.0,156.0,41.0,45.0
619.0,156.0,41.0,45.0
622.0,160.0,38.0,42.0
623.0,165.0,38.0,42.0
623.0,173.0,39.0,43.0
623.0,173.0,39.0,43.0
615.0,207.0,37.0,36.0
622.0,225.0,24.0,32.0
615.0,247.0,26.0,29.0
604.0,272.0,32.0,36.0
593.0,317.0,38.0,41.0
611.0,379.0,30.0,42.0
632.0,396.0,31.0,38.0
0
0
0
0
0
0
0
0
0
0
0
0
0
565.0,367.0,27.0,43.0
565.0,366.0,27.0,44.0
565.0,366.0,28.0,44.0
567.0,349.0,28.0,42.0
567.0,328.0,35.0,39.0
565.0,302.0,34.0,41.0
571.0,284.0,33.0,35.0
567.0,265.0,40.0,47.0
566.0,252.0,38.0,42.0
566.0,249.0,36.0,40.0
572.0,253.0,31.0,34.0
594.0,264.0,38.0,36.0
626.0,269.0,28.0,36.0
639.0,272.0,28.0,34.0
637.0,256.0,30.0,33.0
623.0,248.0,23.0,40.0
609.0,232.0,26.0,45.0
592.0,217.0,36.0,44.0
599.0,206.0,32.0,49.0
618.0,185.0,26.0,56.0
622.0,175.0,33.0,48.0
618.0,164.0,27.0,50.0
616.0,154.0,27.0,51.0
617.0,157.0,27.0,43.0
612.0,175.0,40.0,36.0
610.0,204.0,31.0,32.0
599.0,231.0,38.0,43.0
591.0,265.0,30.0,41.0
579.0,294.0,33.0,48.0
566.0,323.0,33.0,47.0
554.0,341.0,35.0,44.0
545.0,359.0,38.0,36.0
540.0,367.0,35.0,27.0
540.0,367.0,34.0,27.0
542.0,352.0,29.0,37.0
540.0,352.0,29.0,36.0
532.0,367.0,36.0,31.0
530.0,366.0,37.0,32.0
529.0,366.0,38.0,32.0
533.0,374.0,35.0,40.0
531.0,375.0,34.0,39.0
523.0,358.0,32.0,38.0
519.0,345.0,33.0,36.0
514.0,328.0,35.0,39.0
509.0,319.0,32.0,39.0
507.0,307.0,35.0,43.0
503.0,303.0,41.0,40.0
492.0,309.0,44.0,38.0
490.0,332.0,35.0,40.0
485.0,358.0,36.0,38.0
488.0,381.0,43.0,38.0
495.0,394.0,40.0,38.0
499.0,394.0,45.0,42.0
505.0,389.0,43.0,41.0
506.0,376.0,39.0,43.0
512.0,372.0,41.0,36.0
524.0,371.0,31.0,31.0
523.0,361.0,34.0,35.0
530.0,358.0,30.0,25.0
536.0,359.0,28.0,32.0
536.0,361.0,28.0,32.0
538.0,369.0,28.0,32.0
538.0,369.0,28.0,32.0
528.0,382.0,43.0,37.0
527.0,382.0,44.0,38.0
524.0,394.0,29.0,37.0
522.0,397.0,27.0,34.0
510.0,382.0,41.0,42.0
506.0,374.0,42.0,43.0
507.0,370.0,41.0,42.0
511.0,359.0,37.0,38.0
504.0,357.0,41.0,38.0
502.0,353.0,43.0,40.0
501.0,360.0,42.0,39.0
499.0,374.0,41.0,38.0
499.0,374.0,41.0,38.0
503.0,390.0,38.0,41.0
505.0,392.0,42.0,45.0
515.0,393.0,36.0,40.0
519.0,388.0,33.0,36.0
522.0,373.0,42.0,52.0
527.0,369.0,33.0,38.0
533.0,366.0,32.0,36.0
540.0,366.0,38.0,43.0
550.0,366.0,25.0,31.0
551.0,366.0,26.0,32.0
551.0,366.0,27.0,33.0
550.0,366.0,27.0,34.0
550.0,366.0,27.0,33.0
549.0,365.0,27.0,34.0
551.0,385.0,28.0,31.0
549.0,385.0,29.0,32.0
542.0,388.0,37.0,32.0
537.0,388.0,43.0,37.0
528.0,388.0,33.0,38.0
518.0,387.0,37.0,43.0
507.0,393.0,42.0,36.0
504.0,398.0,40.0,34.0
504.0,399.0,38.0,47.0
505.0,399.0,36.0,44.0
504.0,402.0,38.0,47.0
508.0,401.0,36.0,45.0
510.0,398.0,38.0,47.0
530.0,397.0,29.0,35.0
540.0,392.0,27.0,33.0
549.0,383.0,29.0,35.0
551.0,379.0,33.0,36.0
558.0,381.0,31.0,34.0
561.0,383.0,28.0,31.0
561.0,385.0,26.0,28.0
561.0,385.0,25.0,27.0
562.0,389.0,25.0,27.0
563.0,392.0,23.0,25.0
560.0,374.0,30.0,44.0
559.0,374.0,31.0,46.0
558.0,375.0,32.0,47.0
553.0,370.0,38.0,56.0
543.0,377.0,32.0,41.0
542.0,378.0,33.0,42.0
539.0,377.0,33.0,43.0
536.0,377.0,34.0,43.0
534.0,376.0,34.0,44.0
533.0,375.0,34.0,44.0
540.0,388.0,36.0,34.0
538.0,389.0,35.0,33.0
536.0,394.0,32.0,31.0
533.0,400.0,31.0,29.0
533.0,400.0,31.0,29.0
530.0,410.0,29.0,27.0
531.0,412.0,30.0,28.0
533.0,412.0,27.0,26.0
533.0,405.0,25.0,24.0
533.0,397.0,23.0,22.0
535.0,383.0,26.0,27.0
537.0,380.0,24.0,25.0
541.0,380.0,21.0,21.0
546.0,381.0,17.0,17.0
546.0,382.0,17.0,17.0
546.0,386.0,17.0,18.0
546.0,385.0,17.0,17.0
538.0,394.0,28.0,28.0
536.0,393.0,36.0,39.0
546.0,385.0,35.0,43.0
550.0,383.0,34.0,42.0
555.0,378.0,34.0,42.0
559.0,371.0,34.0,42.0
561.0,361.0,36.0,44.0
561.0,350.0,39.0,47.0
556.0,346.0,36.0,44.0
564.0,357.0,38.0,35.0
561.0,363.0,38.0,35.0
552.0,375.0,42.0,36.0
549.0,386.0,37.0,32.0
544.0,394.0,36.0,30.0
541.0,399.0,35.0,30.0
537.0,390.0,34.0,36.0
537.0,392.0,27.0,29.0
535.0,383.0,30.0,33.0
535.0,382.0,31.0,34.0
531.0,375.0,35.0,34.0
532.0,376.0,34.0,33.0
532.0,376.0,34.0,33.0
544.0,366.0,30.0,32.0
543.0,366.0,30.0,32.0
543.0,366.0,29.0,31.0
535.0,369.0,38.0,38.0
533.0,369.0,38.0,38.0
522.0,351.0,31.0,39.0
513.0,330.0,29.0,33.0
494.0,311.0,33.0,29.0
483.0,275.0,30.0,34.0
470.0,250.0,39.0,38.0
463.0,233.0,41.0,43.0
462.0,234.0,41.0,43.0
464.0,235.0,40.0,42.0
464.0,235.0,40.0,42.0
468.0,245.0,35.0,47.0
469.0,246.0,35.0,47.0
469.0,246.0,38.0,51.0
472.0,248.0,34.0,46.0
473.0,248.0,34.0,46.0
474.0,249.0,34.0,46.0
477.0,250.0,33.0,45.0
479.0,249.0,36.0,48.0
479.0,250.0,36.0,49.0
493.0,255.0,36.0,42.0
493.0,255.0,36.0,42.0
509.0,265.0,25.0,31.0
498.0,265.0,44.0,34.0
546.0,278.0,46.0,29.0
614.0,283.0,39.0,28.0
701.0,295.0,45.0,33.0
714.0,312.0,38.0,36.0
705.0,341.0,39.0,28.0
0
0
0
0
0
0
0
0
0
0
0
0
0
0
635.0,382.0,26.0,33.0
634.0,382.0,27.0,35.0
634.0,384.0,28.0,35.0
635.0,386.0,28.0,35.0
633.0,386.0,29.0,37.0
634.0,385.0,31.0,39.0
626.0,395.0,29.0,30.0
626.0,396.0,29.0,30.0
627.0,398.0,28.0,29.0
629.0,399.0,28.0,29.0
631.0,400.0,27.0,28.0
634.0,401.0,27.0,28.0
635.0,401.0,29.0,30.0
636.0,402.0,29.0,30.0
637.0,406.0,28.0,29.0
634.0,406.0,31.0,32.0
630.0,408.0,31.0,32.0
626.0,409.0,30.0,31.0
619.0,410.0,32.0,33.0
613.0,411.0,32.0,33.0
608.0,412.0,33.0,34.0
604.0,413.0,32.0,33.0
600.0,414.0,32.0,34.0
598.0,414.0,33.0,35.0
598.0,414.0,34.0,35.0
599.0,413.0,34.0,35.0
598.0,413.0,34.0,36.0
597.0,413.0,35.0,36.0
597.0,413.0,36.0,37.0
598.0,413.0,36.0,37.0
598.0,413.0,36.0,38.0
597.0,412.0,37.0,39.0
596.0,412.0,37.0,39.0
593.0,412.0,37.0,38.0
594.0,421.0,29.0,37.0
593.0,421.0,29.0,37.0
593.0,422.0,27.0,35.0
591.0,422.0,28.0,35.0
587.0,416.0,30.0,38.0
585.0,411.0,31.0,39.0
584.0,406.0,32.0,41.0
583.0,401.0,33.0,42.0
583.0,400.0,34.0,44.0
583.0,401.0,35.0,45.0
583.0,402.0,36.0,46.0
582.0,400.0,38.0,48.0
585.0,399.0,32.0,35.0
588.0,396.0,32.0,34.0
592.0,394.0,31.0,34.0
593.0,392.0,31.0,34.0
594.0,392.0,30.0,33.0
594.0,391.0,31.0,34.0
593.0,389.0,33.0,36.0
592.0,388.0,33.0,36.0
592.0,388.0,34.0,37.0
593.0,389.0,33.0,36.0
593.0,390.0,34.0,37.0
592.0,391.0,34.0,37.0
591.0,392.0,34.0,38.0
591.0,393.0,34.0,37.0
590.0,394.0,33.0,36.0
590.0,395.0,33.0,36.0
589.0,395.0,33.0,36.0
589.0,395.0,33.0,36.0
589.0,395.0,33.0,36.0
588.0,394.0,33.0,37.0
588.0,392.0,33.0,37.0
587.0,390.0,35.0,38.0
587.0,389.0,35.0,39.0
586.0,390.0,36.0,39.0
586.0,392.0,36.0,39.0
588.0,394.0,32.0,35.0
589.0,390.0,34.0,37.0
588.0,389.0,34.0,37.0
587.0,388.0,35.0,38.0
587.0,391.0,32.0,35.0
587.0,392.0,32.0,35.0
585.0,392.0,32.0,35.0
584.0,392.0,33.0,36.0
584.0,392.0,33.0,36.0
585.0,392.0,34.0,37.0
587.0,392.0,34.0,37.0
588.0,394.0,34.0,37.0
588.0,396.0,34.0,38.0
587.0,397.0,35.0,38.0
585.0,397.0,36.0,39.0
583.0,397.0,36.0,40.0
581.0,397.0,36.0,40.0
579.0,397.0,36.0,40.0
577.0,396.0,36.0,40.0
576.0,395.0,37.0,40.0
573.0,393.0,37.0,40.0
570.0,389.0,37.0,40.0
570.0,387.0,37.0,40.0
572.0,389.0,33.0,36.0
573.0,389.0,34.0,37.0
572.0,390.0,34.0,37.0
572.0,390.0,32.0,35.0
574.0,386.0,35.0,38.0
577.0,384.0,35.0,39.0
578.0,385.0,34.0,37.0
579.0,386.0,34.0,37.0
580.0,387.0,34.0,37.0
580.0,388.0,35.0,38.0
580.0,390.0,35.0,38.0
582.0,392.0,33.0,36.0
583.0,392.0,35.0,38.0
586.0,401.0,28.0,31.0
588.0,402.0,28.0,31.0
589.0,405.0,27.0,30.0
590.0,407.0,26.0,29.0
588.0,410.0,26.0,28.0
586.0,411.0,25.0,27.0
585.0,411.0,25.0,27.0
585.0,411.0,25.0,28.0
584.0,411.0,24.0,27.0
582.0,406.0,26.0,29.0
581.0,402.0,26.0,29.0
581.0,399.0,26.0,29.0
583.0,399.0,27.0,29.0
585.0,400.0,27.0,29.0
585.0,401.0,26.0,28.0
586.0,401.0,26.0,28.0
589.0,400.0,26.0,28.0
591.0,399.0,25.0,28.0
592.0,398.0,25.0,27.0
593.0,398.0,24.0,27.0
592.0,399.0,24.0,27.0
592.0,401.0,23.0,25.0
591.0,402.0,23.0,25.0
590.0,403.0,24.0,26.0
587.0,398.0,31.0,36.0
586.0,400.0,31.0,36.0
586.0,403.0,31.0,36.0
584.0,405.0,31.0,36.0
583.0,408.0,29.0,33.0
582.0,407.0,26.0,30.0
579.0,407.0,26.0,30.0
573.0,408.0,27.0,32.0
570.0,408.0,26.0,30.0
567.0,406.0,26.0,31.0
564.0,406.0,26.0,30.0
561.0,405.0,28.0,32.0
558.0,405.0,24.0,28.0
554.0,399.0,27.0,41.0
551.0,393.0,27.0,41.0
545.0,393.0,29.0,44.0
541.0,379.0,29.0,37.0
541.0,379.0,29.0,37.0
538.0,360.0,27.0,34.0
540.0,350.0,22.0,28.0
542.0,338.0,19.0,24.0
542.0,308.0,25.0,45.0
545.0,295.0,23.0,41.0
548.0,283.0,23.0,41.0
549.0,268.0,24.0,43.0
550.0,252.0,31.0,37.0
553.0,240.0,31.0,54.0
557.0,229.0,28.0,49.0
563.0,219.0,26.0,45.0
569.0,211.0,21.0,37.0
563.0,193.0,36.0,45.0
567.0,191.0,30.0,38.0
566.0,185.0,33.0,33.0
568.0,174.0,34.0,35.0
571.0,168.0,33.0,34.0
575.0,161.0,32.0,33.0
576.0,155.0,33.0,34.0
575.0,153.0,33.0,34.0
574.0,151.0,31.0,32.0
575.0,136.0,41.0,43.0
575.0,135.0,41.0,43.0
574.0,135.0,42.0,44.0
573.0,134.0,43.0,45.0
574.0,126.0,43.0,49.0
573.0,125.0,43.0,50.0
572.0,125.0,44.0,50.0
572.0,125.0,44.0,50.0
572.0,125.0,44.0,50.0
573.0,126.0,44.0,50.0
574.0,127.0,43.0,49.0
578.0,145.0,38.0,36.0
580.0,142.0,39.0,37.0
579.0,135.0,44.0,41.0
571.0,125.0,42.0,45.0
547.0,140.0,42.0,37.0
517.0,177.0,42.0,43.0
506.0,230.0,38.0,39.0
508.0,278.0,39.0,42.0
515.0,310.0,48.0,41.0
531.0,341.0,49.0,41.0
555.0,376.0,35.0,43.0
580.0,391.0,36.0,44.0
609.0,407.0,33.0,37.0
633.0,402.0,38.0,43.0
653.0,389.0,41.0,46.0
672.0,373.0,43.0,39.0
682.0,346.0,51.0,38.0
704.0,318.0,34.0,39.0
705.0,293.0,38.0,43.0
714.0,276.0,32.0,37.0
724.0,254.0,36.0,42.0
733.0,236.0,39.0,45.0
747.0,229.0,40.0,43.0
768.0,233.0,42.0,39.0
777.0,250.0,48.0,38.0
788.0,275.0,39.0,28.0
783.0,293.0,42.0,36.0
775.0,319.0,38.0,36.0
754.0,340.0,37.0,47.0
731.0,361.0,40.0,49.0
711.0,382.0,28.0,38.0
678.0,388.0,34.0,49.0
649.0,381.0,40.0,58.0
625.0,368.0,46.0,67.0
607.0,387.0,50.0,42.0
598.0,383.0,49.0,41.0
593.0,383.0,45.0,38.0
588.0,383.0,46.0,39.0
586.0,382.0,47.0,39.0
585.0,383.0,46.0,39.0
584.0,383.0,47.0,39.0
593.0,381.0,37.0,43.0
593.0,381.0,37.0,43.0
590.0,383.0,36.0,42.0
589.0,382.0,37.0,43.0
587.0,381.0,38.0,44.0
604.0,376.0,37.0,41.0
611.0,363.0,41.0,42.0
626.0,340.0,34.0,46.0
643.0,316.0,35.0,47.0
659.0,282.0,34.0,50.0
682.0,249.0,28.0,44.0
696.0,234.0,25.0,41.0
704.0,211.0,39.0,41.0
731.0,187.0,32.0,38.0
741.0,162.0,44.0,35.0
742.0,137.0,40.0,33.0
733.0,125.0,44.0,44.0
725.0,133.0,47.0,47.0
717.0,138.0,46.0,49.0
703.0,152.0,42.0,54.0
697.0,171.0,41.0,44.0
689.0,195.0,37.0,50.0
676.0,217.0,47.0,44.0
668.0,237.0,48.0,45.0
660.0,266.0,41.0,42.0
662.0,293.0,44.0,38.0
652.0,319.0,46.0,34.0
659.0,342.0,40.0,34.0
632.0,347.0,43.0,39.0
617.0,344.0,41.0,42.0
601.0,332.0,45.0,43.0
588.0,312.0,44.0,47.0
587.0,293.0,45.0,44.0
583.0,263.0,43.0,50.0
583.0,240.0,39.0,48.0
577.0,216.0,36.0,51.0
572.0,198.0,34.0,48.0
567.0,179.0,33.0,47.0
560.0,157.0,39.0,43.0
557.0,142.0,36.0,40.0
546.0,120.0,42.0,41.0
542.0,100.0,46.0,57.0
555.0,112.0,39.0,52.0
564.0,122.0,38.0,48.0
577.0,138.0,32.0,44.0
587.0,155.0,36.0,49.0
601.0,173.0,30.0,41.0
614.0,194.0,36.0,48.0
629.0,222.0,33.0,38.0
644.0,256.0,35.0,32.0
657.0,283.0,31.0,28.0
672.0,304.0,37.0,35.0
688.0,336.0,32.0,37.0
672.0,351.0,42.0,44.0
676.0,354.0,44.0,46.0
683.0,345.0,42.0,44.0
686.0,325.0,48.0,51.0
704.0,302.0,43.0,45.0
702.0,282.0,43.0,42.0
701.0,262.0,39.0,37.0
699.0,244.0,41.0,39.0
702.0,227.0,37.0,37.0
708.0,213.0,31.0,34.0
704.0,198.0,44.0,46.0
699.0,187.0,52.0,54.0
715.0,181.0,41.0,32.0
724.0,167.0,38.0,40.0
713.0,168.0,35.0,42.0
706.0,178.0,36.0,45.0
697.0,187.0,36.0,48.0
682.0,206.0,41.0,46.0
673.0,223.0,40.0,45.0
664.0,238.0,43.0,48.0
656.0,255.0,44.0,49.0
648.0,276.0,43.0,49.0
